
Gurobi 10.0.1 (linux64) logging started Sat 15 Jul 2023 12:47:09 AM CDT

Set parameter LogFile to value "/home/dlcole3/graph_abstraction/plasmoexamples/SHP_serial/SHP_reserve_requirements/gurobi_logs/logfile11.log"
Set parameter NodefileStart to value 0.0005
Set parameter TimeLimit to value 36000
Gurobi Optimizer version 10.0.1 build v10.0.1rc0 (linux64)

CPU model: Intel(R) Xeon(R) CPU E5-2698 v4 @ 2.20GHz, instruction set [SSE2|AVX|AVX2]
Thread count: 40 physical cores, 80 logical processors, using up to 8 threads


Warning: excessive time spent in model updates.
Consider calling update less frequently.

Optimize a model with 1103654 rows, 641709 columns and 4636589 nonzeros
Model fingerprint: 0xc1661130
Variable types: 599982 continuous, 41727 integer (41727 binary)
Coefficient statistics:
  Matrix range     [5e-02, 2e+04]
  Objective range  [2e-01, 8e+04]
  Bounds range     [5e-02, 2e+04]
  RHS range        [6e-14, 7e+03]
Presolve removed 268441 rows and 116046 columns (presolve time = 5s) ...
Presolve removed 276065 rows and 116866 columns (presolve time = 10s) ...
Presolve removed 278030 rows and 119889 columns (presolve time = 15s) ...
Presolve removed 286804 rows and 124444 columns (presolve time = 20s) ...
Presolve removed 291340 rows and 125341 columns (presolve time = 25s) ...
Presolve removed 291350 rows and 125351 columns (presolve time = 30s) ...
Presolve removed 291390 rows and 125391 columns (presolve time = 35s) ...
Presolve removed 291690 rows and 125411 columns (presolve time = 40s) ...
Sparsify removed 202610 nonzeros (5%)
Presolve removed 291690 rows and 183659 columns (presolve time = 45s) ...
Presolve removed 291690 rows and 123765 columns
Presolve time: 45.38s
Presolved: 811964 rows, 517944 columns, 3971253 nonzeros
Variable types: 484252 continuous, 33692 integer (33628 binary)

Deterministic concurrent LP optimizer: primal simplex, dual simplex, and barrier
Showing barrier log only...

Root barrier log...

Elapsed ordering time = 5s
Elapsed ordering time = 16s
Elapsed ordering time = 20s
Elapsed ordering time = 25s
Elapsed ordering time = 31s
Elapsed ordering time = 35s
Elapsed ordering time = 40s
Elapsed ordering time = 44s
Elapsed ordering time = 45s
Elapsed ordering time = 50s
Elapsed ordering time = 57s
Elapsed ordering time = 60s
Elapsed ordering time = 65s
Ordering time: 68.86s

Barrier statistics:
 Dense cols : 208
 AA' NZ     : 2.390e+07
 Factor NZ  : 3.599e+08 (roughly 3.4 GB of memory)
 Factor Ops : 1.674e+12 (roughly 15 seconds per iteration)
 Threads    : 5

                  Objective                Residual
Iter       Primal          Dual         Primal    Dual     Compl     Time
   0  -2.20099952e+11 -1.80396961e+13  1.23e+04 8.88e+03  1.15e+08   153s
   1  -1.52457780e+11 -1.33179754e+13  8.66e+03 1.07e+05  7.24e+07   166s
   2  -1.07322595e+11 -8.33080721e+12  6.20e+03 1.83e+04  4.62e+07   181s
   3  -2.96071178e+10 -3.63544779e+12  1.92e+03 7.53e-01  1.37e+07   196s
   4  -7.68227970e+09 -1.82257090e+12  7.16e+02 3.65e-01  5.02e+06   211s
   5   3.53035406e+09 -8.38561646e+11  1.33e+02 5.12e-02  1.13e+06   227s
   6   5.18454873e+09 -3.22954668e+11  4.97e+01 2.24e-02  3.52e+05   243s
   7   5.09437281e+09 -1.56292541e+11  2.10e+01 1.32e-02  1.43e+05   258s
   8   3.27309458e+09 -4.53008117e+10  5.77e+00 4.20e-03  3.63e+04   275s
   9   1.15179373e+09 -1.66679412e+10  1.86e+00 7.43e-04  1.17e+04   291s
  10   2.15913330e+08 -3.60997502e+09  2.07e-01 2.51e-04  2.29e+03   309s
  11   8.93917414e+07 -4.47958839e+08  2.57e-04 5.62e-05  3.13e+02   325s
  12   7.05346446e+07 -1.38265864e+08  3.56e-06 7.73e-08  1.22e+02   342s
  13   5.95012122e+07 -1.43705016e+06  3.46e-06 1.27e-07  3.55e+01   368s
  14   5.46843322e+07  3.08643442e+07  1.63e-06 9.85e-08  1.39e+01   391s
  15   5.21573630e+07  4.27207430e+07  9.41e-07 6.72e-08  5.50e+00   415s
  16   5.09185336e+07  4.60903664e+07  6.59e-07 3.71e-08  2.81e+00   435s
  17   4.99796259e+07  4.68624597e+07  4.46e-07 6.29e-08  1.82e+00   456s
  18   4.91459882e+07  4.75948406e+07  2.61e-07 3.35e-08  9.04e-01   476s
  19   4.89045470e+07  4.77962684e+07  2.04e-07 2.47e-08  6.46e-01   492s
  20   4.85485662e+07  4.79630769e+07  1.16e-07 4.84e-08  3.41e-01   509s
  21   4.83599872e+07  4.80140985e+07  6.87e-08 2.66e-08  2.02e-01   526s
  22   4.82837066e+07  4.80359170e+07  5.01e-08 5.26e-08  1.44e-01   543s
  23   4.82643381e+07  4.80544185e+07  4.58e-08 5.30e-08  1.22e-01   561s
  24   4.82114722e+07  4.80624076e+07  3.58e-08 2.82e-08  8.69e-02   578s
  25   4.81717271e+07  4.80676299e+07  4.00e-08 1.57e-08  6.07e-02   595s
  26   4.81447208e+07  4.80764202e+07  9.23e-07 2.68e-08  3.98e-02   615s
  27   4.81251938e+07  4.80824547e+07  1.18e-06 1.41e-08  2.49e-02   637s
  28   4.81096237e+07  4.80865091e+07  1.22e-06 2.39e-08  1.35e-02   659s
  29   4.81024267e+07  4.80876504e+07  1.09e-06 4.13e-08  8.61e-03   679s
  30   4.80959309e+07  4.80878558e+07  7.04e-07 2.84e-08  4.71e-03   696s
  31   4.80942941e+07  4.80880365e+07  5.81e-07 9.02e-08  3.65e-03   713s
  32   4.80937629e+07  4.80881002e+07  5.41e-07 5.65e-08  3.30e-03   731s
  33   4.80921655e+07  4.80881523e+07  4.14e-07 5.59e-08  2.34e-03   749s
  34   4.80901430e+07  4.80882570e+07  2.37e-07 3.20e-08  1.10e-03   769s
  35   4.80891712e+07  4.80883426e+07  1.90e-07 6.17e-08  4.83e-04   791s
  36   4.80886634e+07  4.80883797e+07  1.76e-07 3.07e-08  1.65e-04   810s
  37   4.80885122e+07  4.80883817e+07  3.57e-07 3.14e-08  7.61e-05   831s
  38   4.80884911e+07  4.80883843e+07  3.16e-07 3.81e-08  6.23e-05   849s
  39   4.80884267e+07  4.80883844e+07  1.24e-07 6.80e-08  2.46e-05   864s
  40   4.80884001e+07  4.80883843e+07  6.11e-07 4.27e-08  9.19e-06   880s
  41   4.80883935e+07  4.80883851e+07  1.65e-06 2.99e-07  4.87e-06   897s

Barrier solved model in 41 iterations and 896.59 seconds (826.87 work units)
Optimal objective 4.80883935e+07


Root crossover log...

  319672 DPushes remaining with DInf 1.8824481e-02               898s
  152127 DPushes remaining with DInf 3.2813173e+01               901s
  102191 DPushes remaining with DInf 0.0000000e+00               906s
   68724 DPushes remaining with DInf 0.0000000e+00               912s
   51053 DPushes remaining with DInf 0.0000000e+00               915s
   36434 DPushes remaining with DInf 0.0000000e+00               921s
   26988 DPushes remaining with DInf 0.0000000e+00               926s
   19093 DPushes remaining with DInf 0.0000000e+00               930s
   14426 DPushes remaining with DInf 0.0000000e+00               935s
   11124 DPushes remaining with DInf 0.0000000e+00               940s
    7942 DPushes remaining with DInf 0.0000000e+00               945s
    5727 DPushes remaining with DInf 0.0000000e+00               951s
    4813 DPushes remaining with DInf 0.0000000e+00               956s
    2739 DPushes remaining with DInf 0.0000000e+00               961s
    1351 DPushes remaining with DInf 0.0000000e+00               966s
       0 DPushes remaining with DInf 0.0000000e+00               970s

  126150 PPushes remaining with PInf 2.4946571e-02               970s
   15383 PPushes remaining with PInf 3.7120663e-02               975s
    4497 PPushes remaining with PInf 1.2016857e-01               981s
       0 PPushes remaining with PInf 4.5830508e-04               983s

  Push phase complete: Pinf 4.5830508e-04, Dinf 5.3142060e+06    983s


Root simplex log...

Iteration    Objective       Primal Inf.    Dual Inf.      Time
  283369    4.8088385e+07   0.000000e+00   5.314206e+06    984s
  283480    4.8088385e+07   0.000000e+00   0.000000e+00    987s
  283480    4.8088385e+07   0.000000e+00   0.000000e+00    988s
Waiting for other threads to finish...        1055s
Waiting for other threads to finish...        1141s
Waiting for other threads to finish...        1208s
Waiting for other threads to finish...        1274s
Waiting for other threads to finish...        1341s
Waiting for other threads to finish...        1408s
Concurrent spin time: 448.68s (can be avoided by choosing Method=3)

Solved with barrier

Root relaxation: objective 4.808839e+07, 283480 iterations, 1386.94 seconds (880.48 work units)

    Nodes    |    Current Node    |     Objective Bounds      |     Work
 Expl Unexpl |  Obj  Depth IntInf | Incumbent    BestBd   Gap | It/Node Time

     0     0 4.8088e+07    0  399          - 4.8088e+07      -     - 1459s
     0     0 4.8088e+07    0  399          - 4.8088e+07      -     - 1462s
     0     0 4.8100e+07    0  355          - 4.8100e+07      -     - 1591s
     0     0 4.8103e+07    0  355          - 4.8103e+07      -     - 1640s
     0     0 4.8103e+07    0  357          - 4.8103e+07      -     - 1646s
     0     0 4.8103e+07    0  354          - 4.8103e+07      -     - 1651s
     0     0 4.8105e+07    0  355          - 4.8105e+07      -     - 1676s
     0     0 4.8105e+07    0  339          - 4.8105e+07      -     - 1678s
     0     0 4.8105e+07    0  299          - 4.8105e+07      -     - 1721s
     0     0 4.8105e+07    0  265          - 4.8105e+07      -     - 1728s
     0     0 4.8106e+07    0  314          - 4.8106e+07      -     - 1764s
     0     0 4.8106e+07    0  328          - 4.8106e+07      -     - 1799s
     0     0 4.8106e+07    0  328          - 4.8106e+07      -     - 1840s
     0     0 4.8106e+07    0  327          - 4.8106e+07      -     - 1843s
     0     0 4.8106e+07    0  316          - 4.8106e+07      -     - 1892s
     0     0 4.8106e+07    0  330          - 4.8106e+07      -     - 1898s
     0     0 4.8106e+07    0  291          - 4.8106e+07      -     - 1918s
     0     0 4.8106e+07    0  291          - 4.8106e+07      -     - 1947s
     0     0 4.8106e+07    0  296          - 4.8106e+07      -     - 1952s
     0     0 4.8106e+07    0  322          - 4.8106e+07      -     - 1970s
     0     0 4.8106e+07    0  322          - 4.8106e+07      -     - 2006s
     0     0 4.8106e+07    0  328          - 4.8106e+07      -     - 2011s
     0     0 4.8106e+07    0  284          - 4.8106e+07      -     - 2028s
     0     0 4.8106e+07    0  285          - 4.8106e+07      -     - 2078s
     0     0 4.8106e+07    0  326          - 4.8106e+07      -     - 2096s
     0     0 4.8106e+07    0  301          - 4.8106e+07      -     - 2137s
     0     0 4.8106e+07    0  287          - 4.8106e+07      -     - 2182s
H    0     0                    1.133515e+10 4.8106e+07   100%     - 2184s
     0     0 4.8106e+07    0  282 1.1335e+10 4.8106e+07   100%     - 2205s
H    0     0                    1.005105e+10 4.8106e+07   100%     - 2400s
     0     2 4.8106e+07    0  282 1.0051e+10 4.8106e+07   100%     - 2444s
     1     4 4.8122e+07    1  241 1.0051e+10 4.8106e+07   100%  2028 2476s
     3     8 4.8131e+07    2  263 1.0051e+10 4.8118e+07   100%  1846 2528s
     7    16 4.8162e+07    3  343 1.0051e+10 4.8118e+07   100%  2542 2650s
    15    24 4.8164e+07    4  345 1.0051e+10 4.8118e+07   100%  3902 2697s
    23    32 4.8738e+07    4  343 1.0051e+10 4.8118e+07   100%  4414 3706s
H   31    40                    5.023655e+07 4.8119e+07  4.22% 11647 3834s
H   36    40                    4.851486e+07 4.8119e+07  0.82% 10541 3834s
H   38    40                    4.818379e+07 4.8119e+07  0.14% 10032 3835s

Cutting planes:
  Gomory: 12
  Implied bound: 272
  MIR: 50
  Flow cover: 435
  RLT: 7
  Relax-and-lift: 11

Explored 39 nodes (673212 simplex iterations) in 3835.34 seconds (3229.16 work units)
Thread count was 8 (of 80 available processors)

Solution count 6: 4.81838e+07 4.81838e+07 4.85149e+07 ... 1.13351e+10

Optimal solution found (tolerance 1.00e-01)
Best objective 4.818378898982e+07, best bound 4.811872931951e+07, gap 0.1350%

User-callback calls 1355662, time in user-callback 5.00 sec
